 200 91 
 95 57 47 97 85 42 75 23 33 93 77 56 
 85 66 22 42 87 85 16 62 6 63 42 31 
 71 44 61 56 30 51 32 32 79 31 8 75 
 93 53 40 7 38 8 25 62 84 22 69 84 
 75 29 80 94 31 21 80 11 77 30 48 47 
 7 87 45 5 71 36 17 39 73 20 70 67 
 78 11 84 18 12 7 92 23 100 21 64 4 
 1 96 32 96 11 41 44 
 69 
 1 3 4 6 7 8 9 10 11 12 14 15 
 18 20 21 22 23 24 25 26 27 28 29 30 
 31 32 33 34 35 36 37 38 39 40 41 42 
 43 44 46 49 50 51 52 53 55 58 59 60 
 61 62 65 68 69 70 71 73 74 75 76 77 
 79 81 82 83 86 87 89 90 91 
 67 
 1 2 3 5 6 7 8 9 12 13 14 15 
 16 17 22 23 24 25 27 29 30 31 32 33 
 34 35 36 37 39 40 41 43 45 46 47 48 
 49 50 51 52 54 55 58 59 60 61 63 64 
 65 66 67 71 73 74 76 77 79 80 81 82 
 83 84 85 86 87 88 91 
 8 
 2 7 21 38 62 67 73 87 
 82 
 1 2 3 4 5 6 7 9 10 11 12 13 
 14 15 16 17 18 19 20 21 22 23 24 25 
 28 29 30 31 32 33 34 35 36 37 38 39 
 40 41 42 43 44 45 46 47 48 49 51 52 
 53 54 56 58 59 60 61 62 63 64 65 67 
 68 69 70 71 72 73 74 75 77 78 79 80 
 81 82 83 84 85 86 87 88 89 91 
 71 
 1 2 3 4 5 6 8 10 11 12 13 15 
 16 17 18 21 23 24 25 26 27 28 29 30 
 32 33 34 35 36 38 39 40 41 42 43 44 
 45 47 48 49 50 51 52 53 54 57 58 59 
 60 61 62 63 64 65 67 71 72 74 75 77 
 78 79 81 82 83 84 85 86 88 90 91 
 25 
 11 17 23 30 33 39 40 41 44 48 56 58 
 59 60 61 67 72 74 75 79 81 85 88 90 
 91 
 61 
 2 3 5 6 7 8 13 14 15 18 19 21 
 23 24 26 27 29 31 32 33 34 35 36 37 
 38 40 41 43 44 45 46 48 49 52 55 56 
 57 58 59 61 63 64 67 68 69 70 71 72 
 73 76 78 81 82 83 84 86 87 88 89 90 
 91 
 84 
 1 2 4 5 6 7 8 10 11 12 13 14 
 15 16 17 18 19 20 21 22 23 24 25 26 
 27 28 29 30 31 32 33 34 35 37 38 39 
 40 41 42 43 44 45 46 47 48 50 51 53 
 54 55 56 57 58 59 60 61 63 64 65 66 
 68 69 70 71 72 73 74 75 76 77 78 79 
 80 81 82 83 84 85 86 87 88 89 90 91 
 46 
 4 6 7 8 11 13 14 15 16 19 21 24 
 32 33 34 37 38 41 43 44 45 46 48 49 
 51 52 56 57 59 60 63 64 65 66 68 69 
 70 71 72 78 82 84 87 88 89 91 
 15 
 6 18 22 24 27 34 38 40 56 57 66 67 
 68 86 88 
 57 
 1 3 4 9 11 12 16 17 18 19 20 21 
 23 24 26 27 28 29 32 33 34 37 38 39 
 43 44 45 46 48 49 51 53 54 55 56 59 
 61 62 63 65 66 67 68 70 72 73 75 77 
 78 80 82 86 87 88 89 90 91 
 38 
 1 2 3 12 16 18 20 22 23 24 25 26 
 32 34 37 38 42 44 45 49 50 54 56 59 
 60 64 65 66 68 72 73 75 78 81 85 89 
 90 91 
 30 
 1 2 4 10 12 15 29 30 34 36 37 40 
 42 49 52 55 56 58 64 69 70 71 73 75 
 76 79 81 85 88 91 
 36 
 1 2 4 5 6 9 11 14 18 19 22 23 
 24 27 34 35 46 48 54 55 57 58 63 67 
 69 70 75 76 79 80 81 82 83 85 86 89 
 22 
 6 9 19 27 34 35 39 40 41 42 63 66 
 68 69 72 74 75 80 83 87 88 91 
 13 
 24 33 36 40 41 42 64 67 70 85 87 89 
 90 
 69 
 1 2 3 4 5 6 7 11 13 14 16 17 
 19 20 22 24 26 27 28 30 31 32 34 35 
 36 37 38 39 42 43 44 45 46 47 48 49 
 50 51 52 53 54 55 56 57 58 59 60 62 
 63 67 69 71 72 73 74 75 76 77 79 80 
 81 82 83 85 86 87 88 89 90 
 39 
 4 6 9 10 12 13 14 17 20 24 27 34 
 36 37 39 42 46 51 52 53 56 59 60 61 
 62 63 64 65 67 68 69 70 74 79 84 85 
 87 88 91 
 91 
 1 2 3 4 5 6 7 8 9 10 11 12 
 13 14 15 16 17 18 19 20 21 22 23 24 
 25 26 27 28 29 30 31 32 33 34 35 36 
 37 38 39 40 41 42 43 44 45 46 47 48 
 49 50 51 52 53 54 55 56 57 58 59 60 
 61 62 63 64 65 66 67 68 69 70 71 72 
 73 74 75 76 77 78 79 80 81 82 83 84 
 85 86 87 88 89 90 91 
 45 
 1 2 4 5 6 7 8 9 10 13 16 17 
 19 21 23 25 26 27 28 29 31 32 33 34 
 39 40 42 43 44 47 49 51 54 56 58 60 
 62 64 66 69 70 73 74 88 91 
 78 
 3 4 5 6 7 8 9 10 11 12 13 14 
 15 16 17 18 19 20 23 24 25 26 27 28 
 29 30 31 32 34 35 37 39 40 41 42 44 
 45 48 49 50 51 52 53 54 55 57 58 59 
 60 61 62 63 65 66 67 68 69 70 71 72 
 73 74 75 76 77 78 79 80 81 82 83 85 
 86 87 88 89 90 91 
 35 
 2 6 8 12 19 20 26 28 29 31 32 33 
 34 38 43 49 50 51 52 54 60 61 62 66 
 69 71 73 77 78 79 80 82 85 86 89 
 37 
 1 4 5 6 8 9 11 20 22 23 27 28 
 34 40 41 43 46 50 53 55 56 57 59 63 
 65 66 68 69 71 72 73 74 78 83 85 88 
 89 
 4 
 3 44 47 56 
 78 
 1 2 3 4 5 6 7 9 10 11 12 13 
 14 16 17 18 21 23 24 25 26 27 28 30 
 31 32 33 34 35 36 37 38 39 40 41 42 
 43 44 45 46 48 49 50 52 53 54 55 56 
 57 58 59 60 61 62 63 64 65 66 68 69 
 71 72 73 74 75 76 77 78 81 82 83 84 
 86 87 88 89 90 91 
 34 
 2 3 4 5 10 11 18 20 22 26 28 34 
 39 44 47 48 49 50 53 54 55 57 59 61 
 64 66 71 74 76 80 82 85 89 91 
 45 
 2 5 7 8 9 10 11 12 13 15 16 17 
 19 22 23 24 29 32 35 37 42 43 45 47 
 48 49 50 52 56 57 60 61 65 66 67 73 
 76 77 78 81 83 84 86 89 90 
 81 
 1 2 3 5 6 8 9 10 11 12 13 14 
 16 17 18 19 20 21 22 23 24 26 27 28 
 29 30 31 32 34 35 37 38 39 40 41 42 
 43 44 45 46 47 49 50 51 52 53 54 55 
 56 57 58 59 60 61 62 63 64 65 66 67 
 68 69 70 71 72 73 74 75 76 77 79 80 
 83 84 85 86 87 88 89 90 91 
 37 
 3 7 9 12 13 15 16 21 31 32 33 36 
 37 39 40 42 43 44 45 46 47 48 50 52 
 53 55 56 57 59 62 64 65 71 76 79 86 
 89 
 27 
 1 2 16 17 21 23 25 26 27 31 34 38 
 53 55 57 58 59 62 63 68 82 83 85 87 
 88 90 91 
 6 
 26 33 45 59 69 83 
 7 
 2 30 45 54 60 67 75 
 53 
 3 4 5 6 7 9 10 11 13 16 18 21 
 26 27 28 29 30 32 33 34 35 37 38 41 
 42 44 45 46 49 50 51 52 54 56 57 58 
 59 60 62 63 65 66 69 70 71 73 76 77 
 80 81 82 83 87 
 85 
 1 2 4 5 6 7 8 9 10 11 12 13 
 14 15 16 17 18 19 20 21 22 23 24 25 
 26 27 28 29 30 31 32 33 34 35 36 37 
 38 39 40 41 42 43 44 45 46 48 49 50 
 51 53 54 55 56 57 58 59 60 61 62 63 
 64 65 66 67 68 69 70 71 72 73 74 75 
 76 77 78 79 80 81 82 83 84 85 86 88 
 89 
 44 
 2 5 9 11 12 13 14 16 17 19 20 23 
 25 26 28 30 31 33 36 39 40 42 46 49 
 50 54 60 64 65 68 69 70 73 74 75 76 
 78 80 82 84 85 86 88 91 
 11 
 4 17 35 50 59 62 70 72 78 83 86 
 5 
 10 20 46 47 57 
 78 
 1 2 4 5 6 7 8 9 10 11 12 13 
 15 16 17 18 19 20 21 23 24 25 26 27 
 28 29 30 31 32 33 34 36 37 38 39 40 
 42 43 44 45 46 47 48 51 52 53 54 56 
 57 58 61 62 63 64 65 66 67 68 69 70 
 71 73 74 75 76 77 78 79 80 82 83 84 
 85 86 88 89 90 91 
 41 
 2 4 5 6 7 9 10 13 15 16 18 20 
 24 26 27 28 30 31 32 33 37 38 41 43 
 51 53 55 56 57 61 66 68 69 70 74 75 
 76 85 86 87 90 
 49 
 1 2 3 6 8 9 10 12 14 18 20 21 
 22 24 25 28 29 31 34 35 36 37 39 40 
 42 43 45 46 47 50 54 56 59 60 61 63 
 68 69 70 73 74 76 78 81 82 83 87 89 
 91 
 35 
 3 8 12 14 16 17 18 19 23 24 25 26 
 34 35 36 37 38 39 41 46 47 49 50 52 
 54 55 65 68 71 74 76 77 83 85 89 
 14 
 16 18 24 27 33 37 46 52 57 61 63 75 
 85 89 
 52 
 1 2 4 7 8 10 11 12 13 14 15 16 
 18 21 22 23 24 25 27 28 29 32 33 34 
 38 40 43 44 45 46 49 50 51 54 55 57 
 58 60 61 68 69 70 77 78 80 81 82 83 
 85 87 88 89 
 86 
 1 2 3 4 5 6 7 8 10 11 12 13 
 14 16 17 18 19 20 21 22 23 24 25 26 
 27 28 29 30 31 32 33 34 35 36 37 38 
 39 40 41 42 43 44 45 46 47 48 49 50 
 51 52 53 54 55 56 57 58 59 60 61 62 
 63 64 65 66 68 69 70 71 72 73 74 75 
 77 78 79 80 81 82 83 84 86 87 88 89 
 90 91 
 64 
 1 2 4 5 6 7 9 10 11 12 13 16 
 17 19 20 21 23 24 25 26 27 28 31 32 
 33 34 35 36 38 40 41 43 44 45 46 51 
 52 53 54 55 56 57 59 60 61 62 63 64 
 65 66 67 70 71 72 73 77 78 81 82 83 
 84 85 86 91 
 41 
 2 3 5 7 8 9 15 22 23 24 25 27 
 28 30 32 33 34 36 40 42 46 48 52 53 
 55 57 59 60 61 62 63 64 65 66 67 70 
 73 77 79 84 90 
 21 
 3 8 11 12 14 16 17 26 27 29 30 42 
 51 59 64 68 69 76 80 81 82 
 85 
 1 2 3 5 6 8 9 10 11 12 13 14 
 15 16 17 18 19 20 21 22 23 24 25 26 
 27 28 29 30 31 32 33 34 35 36 38 39 
 40 41 42 43 44 45 46 47 48 49 51 52 
 53 54 55 56 57 58 59 60 61 62 63 64 
 65 66 67 68 69 70 71 73 74 75 76 77 
 78 80 81 82 83 84 85 86 87 88 89 90 
 91 
 84 
 1 2 3 4 5 6 7 8 9 10 11 12 
 13 14 15 17 18 19 20 21 22 24 25 26 
 27 28 29 30 31 32 33 34 35 36 37 38 
 40 41 42 43 44 46 47 48 49 50 51 52 
 53 55 56 57 58 59 60 61 62 63 64 65 
 66 67 68 69 70 71 72 74 75 76 77 78 
 79 80 81 82 83 84 85 87 88 89 90 91 
 58 
 2 5 6 7 8 9 11 13 17 18 20 21 
 23 24 25 26 27 28 29 31 32 33 35 36 
 37 38 42 44 46 48 49 53 55 56 58 60 
 61 63 64 65 66 68 69 71 72 74 75 76 
 77 78 79 81 83 84 85 86 87 88 
 21 
 6 7 14 21 23 26 42 45 49 51 54 55 
 59 71 73 75 77 82 87 88 89 
 9 
 7 8 13 37 50 57 65 67 85 
 64 
 1 3 4 6 7 8 10 11 13 14 15 16 
 17 19 20 21 22 23 24 25 26 27 29 30 
 31 32 33 34 35 36 37 41 43 44 45 46 
 47 48 50 53 55 56 57 58 60 61 62 63 
 64 65 68 69 73 74 75 76 78 80 81 82 
 83 85 87 90 
 67 
 2 3 4 5 6 7 9 10 11 12 13 14 
 15 18 19 21 22 23 26 27 28 29 30 31 
 32 33 34 35 36 39 40 41 42 43 45 46 
 47 48 49 51 52 54 57 58 59 61 62 63 
 68 69 71 72 74 75 76 77 78 80 81 82 
 84 86 87 88 89 90 91 
 11 
 8 10 18 36 49 58 64 81 82 87 89 
 75 
 1 2 3 4 5 6 8 9 10 12 13 14 
 15 16 18 21 22 24 25 26 27 28 32 33 
 35 36 37 38 39 41 42 43 44 45 46 49 
 50 51 53 54 55 56 57 58 59 60 61 62 
 63 64 65 66 67 68 69 70 71 72 73 74 
 75 76 77 78 79 80 81 82 83 84 85 87 
 89 90 91 
 16 
 1 11 12 15 17 21 23 28 34 47 49 52 
 64 78 81 91 
 75 
 1 2 3 4 5 6 7 9 10 11 13 15 
 16 17 18 19 20 21 22 23 25 26 27 28 
 29 30 31 32 33 36 38 40 42 43 44 45 
 47 48 49 50 52 53 54 55 56 57 58 59 
 61 62 63 64 65 66 68 70 71 72 73 74 
 75 76 77 78 79 80 82 83 84 85 86 87 
 89 90 91 
 2 
 65 66 
 52 
 2 3 4 6 8 10 11 12 14 17 18 21 
 23 24 27 33 37 39 41 43 44 45 47 48 
 49 51 55 57 58 59 61 63 64 65 66 68 
 69 70 71 72 73 74 76 78 80 81 83 85 
 87 88 89 91 
 81 
 1 2 3 4 5 7 8 9 10 11 13 14 
 15 16 17 18 20 21 22 23 24 25 26 27 
 28 30 32 33 34 35 36 37 38 39 40 41 
 42 43 44 45 46 47 48 50 51 52 53 54 
 55 56 57 58 61 62 63 64 66 67 68 69 
 70 71 72 73 74 75 76 77 78 79 80 81 
 82 83 84 85 86 87 88 89 90 
 86 
 1 2 3 4 5 6 7 8 9 10 11 12 
 13 14 15 16 17 18 19 20 21 22 23 24 
 25 26 27 28 29 30 32 34 35 36 37 38 
 39 40 41 42 43 44 45 46 47 48 49 50 
 51 53 54 56 57 58 59 60 61 62 63 64 
 65 66 67 68 69 70 71 72 73 74 75 76 
 77 78 79 80 81 82 83 84 85 86 87 88 
 89 91 
 50 
 2 3 4 5 6 13 15 17 19 24 25 27 
 29 30 31 33 36 37 38 40 44 47 48 49 
 53 54 55 56 57 58 61 63 65 66 67 68 
 69 70 72 74 75 78 80 81 84 86 88 89 
 90 91 
 85 
 1 2 3 5 7 8 10 11 12 13 14 15 
 16 17 18 19 20 21 22 23 25 26 27 28 
 29 30 31 32 33 34 35 36 37 38 39 40 
 41 42 43 44 45 46 47 48 49 50 51 52 
 53 54 55 56 57 58 59 60 61 62 64 65 
 66 67 68 69 70 72 73 74 75 76 77 78 
 79 80 81 82 83 84 85 86 87 88 89 90 
 91 
 65 
 1 2 3 4 6 10 11 12 13 14 15 16 
 17 18 20 21 24 25 27 28 29 30 31 35 
 36 38 39 41 42 43 44 45 46 47 48 49 
 51 53 54 56 57 58 59 60 61 62 64 66 
 67 68 69 70 72 74 75 76 78 79 81 82 
 85 87 88 89 90 
 45 
 1 4 5 8 10 12 13 14 15 17 18 20 
 26 27 32 33 38 39 40 41 42 44 45 47 
 48 53 55 56 57 62 64 65 67 69 71 74 
 75 77 78 81 83 85 87 88 89 
 23 
 12 21 25 29 32 33 38 39 41 45 48 49 
 56 58 61 68 69 71 72 73 74 75 85 
 53 
 1 2 3 5 7 8 9 10 12 13 14 15 
 16 20 23 24 25 29 30 31 35 37 39 40 
 43 44 46 47 50 51 52 54 59 60 61 62 
 63 64 67 69 70 75 76 77 78 80 81 82 
 84 85 86 87 88 
 76 
 1 3 4 5 6 7 8 9 10 11 12 13 
 14 15 17 18 19 22 23 25 26 27 28 29 
 30 33 34 35 36 37 38 40 42 43 44 45 
 46 47 48 51 52 53 54 55 57 58 59 60 
 61 63 64 65 66 67 68 69 70 72 73 74 
 75 76 78 79 80 81 82 83 84 85 86 87 
 88 89 90 91 
 2 
 12 47 
 2 
 11 20 
 82 
 1 2 3 4 5 6 7 8 10 11 12 13 
 14 15 16 17 18 20 21 22 24 25 26 27 
 28 29 30 31 32 33 34 35 36 37 38 39 
 41 42 43 44 45 46 47 48 49 50 52 53 
 54 56 57 58 59 60 61 63 64 65 66 67 
 68 69 70 71 73 74 75 76 77 78 79 80 
 81 82 83 84 85 86 87 88 89 90 
 74 
 1 2 3 4 6 7 9 10 13 14 15 16 
 17 19 20 21 23 24 25 26 27 28 29 30 
 32 33 34 35 36 37 38 40 41 42 43 44 
 45 46 47 48 49 51 52 53 54 56 58 59 
 60 61 63 64 66 67 68 69 70 71 72 73 
 74 75 77 78 79 80 81 82 83 85 88 89 
 90 91 
 15 
 6 11 18 19 20 24 26 39 57 66 79 80 
 83 86 87 
 88 
 1 2 3 4 5 6 7 8 9 10 11 13 
 14 15 16 17 18 19 20 21 22 23 24 25 
 26 27 28 29 30 31 32 33 34 35 36 37 
 38 39 40 41 42 43 44 45 46 47 48 49 
 50 51 52 53 54 55 56 57 59 60 61 62 
 63 64 65 66 67 68 69 70 71 72 73 74 
 75 76 77 78 80 81 82 83 84 85 86 87 
 88 89 90 91 
 38 
 1 3 4 5 12 14 16 18 21 24 25 26 
 27 29 34 35 36 37 38 39 42 44 47 49 
 52 53 54 55 62 68 69 70 72 73 74 76 
 77 90 
 30 
 2 5 7 10 11 14 15 16 19 20 21 22 
 25 29 32 36 40 41 48 52 53 59 62 63 
 65 75 80 81 85 87 
 61 
 1 2 4 5 8 9 10 11 12 13 14 15 
 16 17 18 19 20 21 22 23 24 25 26 28 
 30 36 37 40 43 45 46 47 48 49 50 53 
 54 55 56 58 60 62 63 64 65 66 67 68 
 69 70 73 74 76 78 80 83 85 86 87 89 
 90 
 24 
 3 5 6 7 10 12 27 29 30 36 39 48 
 49 51 53 59 60 64 65 69 72 74 75 84 
 5 
 10 41 73 77 78 
 71 
 1 2 3 4 5 6 7 8 9 10 11 12 
 16 17 18 19 20 21 22 24 26 28 31 32 
 34 35 36 38 39 41 42 43 44 45 46 47 
 48 49 50 52 53 54 55 56 57 58 60 61 
 62 63 64 65 66 68 69 70 72 73 74 75 
 76 77 80 82 83 84 85 86 89 90 91 
 28 
 2 5 10 14 22 23 30 33 36 40 47 53 
 58 59 63 65 66 67 69 70 71 73 78 80 
 82 84 88 90 
 19 
 1 3 13 14 16 28 39 45 47 48 49 58 
 69 71 72 73 77 80 90 
 27 
 1 3 6 8 9 12 13 19 29 31 32 38 
 42 43 47 48 57 60 65 70 71 77 80 81 
 84 85 86 
 39 
 1 2 5 8 9 12 14 18 19 23 25 28 
 31 34 35 39 40 45 47 48 50 59 65 66 
 67 68 69 70 73 74 75 78 81 83 84 85 
 88 89 91 
 35 
 1 3 4 6 8 10 11 13 14 15 18 21 
 22 26 28 29 30 32 36 41 42 43 55 59 
 61 63 64 65 66 68 71 80 83 84 88 
 80 
 1 2 3 4 5 6 7 8 10 11 12 13 
 14 15 16 19 20 22 24 25 26 27 29 30 
 31 32 34 35 36 37 38 39 40 41 42 43 
 44 45 46 48 49 51 52 53 54 55 56 57 
 58 59 60 61 62 63 64 65 66 67 68 69 
 70 71 72 73 74 75 76 77 78 79 80 81 
 82 83 84 85 86 87 89 90 
 22 
 11 17 21 23 29 30 31 35 36 37 42 43 
 58 59 60 63 64 66 67 69 70 75 
 77 
 1 3 4 5 6 7 8 9 11 13 15 16 
 17 18 19 20 21 22 23 24 25 26 27 28 
 29 30 31 32 33 34 35 36 37 38 39 40 
 41 42 43 44 46 47 48 49 50 52 54 55 
 58 59 61 62 64 65 66 67 68 69 70 71 
 72 73 74 76 77 79 80 81 83 84 85 86 
 87 88 89 90 91 
 58 
 1 5 6 7 8 9 10 11 13 14 16 18 
 19 21 22 23 24 25 27 31 32 34 35 36 
 39 40 41 44 46 50 51 52 54 55 56 57 
 58 62 63 65 68 69 70 72 73 74 75 77 
 79 82 83 84 85 86 88 89 90 91 
 18 
 6 9 11 18 19 20 22 43 44 51 52 54 
 65 70 77 82 83 86 
 9 
 1 3 8 9 32 40 69 85 87 
 73 
 1 2 4 5 6 7 8 9 10 11 12 13 
 14 15 16 20 23 24 25 26 28 29 31 32 
 33 34 35 37 38 39 40 41 43 44 45 46 
 48 49 51 52 53 55 57 58 60 62 63 64 
 65 66 67 68 69 70 71 72 73 74 76 77 
 78 79 80 81 82 83 84 85 86 87 88 89 
 91 
 51 
 1 2 3 6 9 11 12 14 16 17 18 22 
 24 26 29 30 31 32 33 35 36 37 39 40 
 45 46 47 49 50 51 52 53 54 58 61 62 
 64 67 68 69 71 72 73 75 77 78 82 85 
 86 89 90 
 58 
 3 5 6 8 9 10 11 13 14 15 16 21 
 22 23 25 26 27 28 29 32 33 34 35 36 
 38 40 41 42 44 45 46 47 51 55 57 58 
 59 60 62 63 64 66 67 68 71 74 75 76 
 78 79 80 81 82 84 87 89 90 91 
 16 
 11 12 13 19 21 28 47 51 54 55 63 69 
 70 79 87 90 
 83 
 1 2 3 4 5 6 8 10 11 12 13 14 
 15 17 19 20 21 22 23 24 25 26 27 28 
 29 30 31 32 33 34 35 36 37 38 39 40 
 41 42 44 45 46 47 48 49 50 51 52 53 
 54 55 56 57 58 59 60 61 62 63 64 65 
 66 67 68 70 71 72 73 74 75 76 77 78 
 79 80 82 83 85 86 87 88 89 90 91 
 70 
 1 2 3 4 6 7 8 9 10 11 12 13 
 14 15 17 19 20 21 23 24 25 26 27 28 
 29 30 31 32 33 34 38 39 40 41 42 44 
 45 46 47 48 49 54 56 58 60 62 63 64 
 65 66 68 69 70 71 72 73 76 77 78 79 
 80 81 83 84 85 86 88 89 90 91 
 20 
 5 11 19 21 23 29 36 42 44 53 63 64 
 67 71 72 74 76 77 83 90 
 31 
 2 9 11 13 14 18 25 29 31 38 43 44 
 45 47 49 56 57 62 63 66 68 69 72 73 
 79 82 83 84 86 90 91 
 53 
 1 5 6 7 8 9 12 13 14 15 16 18 
 19 21 22 23 24 25 26 29 31 32 33 35 
 36 41 42 43 45 47 48 49 50 51 57 58 
 60 62 64 69 70 72 75 77 78 79 81 82 
 83 84 85 89 90 
 5 
 20 56 77 78 79 
 56 
 2 3 4 8 9 12 15 16 20 21 25 27 
 28 30 31 32 33 34 36 37 39 40 42 43 
 45 49 52 53 55 56 57 59 60 61 63 64 
 66 67 69 70 71 73 74 75 76 78 79 80 
 82 83 84 85 87 88 89 90 
 87 
 1 2 3 4 5 6 7 9 10 11 13 14 
 15 16 17 18 19 20 21 22 23 24 25 27 
 28 29 30 31 32 33 34 35 36 37 38 39 
 40 41 42 43 44 45 46 47 48 49 50 51 
 52 53 54 55 56 57 58 59 60 61 62 64 
 65 66 67 68 69 70 71 72 73 74 75 76 
 77 78 79 80 81 82 83 84 85 86 87 88 
 89 90 91 
 73 
 1 3 4 5 7 8 9 11 12 13 14 15 
 16 18 19 20 21 22 23 25 27 28 31 32 
 33 34 35 36 37 38 39 40 42 43 44 45 
 46 47 48 50 52 53 54 56 57 58 59 60 
 64 65 66 67 68 69 70 73 74 75 76 77 
 78 79 80 81 82 83 84 85 86 87 88 89 
 91 
 61 
 4 5 8 10 12 13 15 16 18 19 20 22 
 23 25 26 27 28 29 30 31 32 33 35 36 
 37 38 39 40 41 43 44 45 47 48 52 53 
 54 55 56 57 62 63 64 65 66 68 71 73 
 74 77 78 80 81 82 83 84 85 86 87 88 
 89 
 49 
 1 2 3 5 8 10 11 13 15 18 21 22 
 23 24 25 31 32 33 34 35 36 40 41 45 
 46 50 53 55 56 57 59 60 61 63 64 66 
 67 68 72 73 77 81 82 83 85 86 88 90 
 91 
 40 
 2 5 6 8 10 11 12 13 14 16 17 18 
 19 20 26 29 33 34 35 36 38 40 41 50 
 51 52 54 55 58 59 66 67 68 69 71 73 
 76 80 81 86 
 15 
 1 2 6 8 26 30 35 36 43 51 63 64 
 79 87 88 
 81 
 2 4 5 7 9 10 12 13 14 15 17 18 
 19 20 21 22 23 24 25 26 27 28 29 30 
 32 33 34 35 36 39 40 41 42 43 44 45 
 46 47 48 49 50 51 52 53 54 55 56 57 
 58 59 60 61 62 63 64 65 66 67 68 69 
 70 71 72 73 74 75 76 77 78 79 80 81 
 82 83 84 85 86 87 89 90 91 
 21 
 1 4 10 11 13 23 24 27 31 37 38 39 
 45 48 51 59 62 71 83 85 87 
 22 
 4 11 17 18 19 20 21 23 27 46 51 56 
 57 58 64 67 68 69 73 74 78 85 
 80 
 1 2 3 4 6 7 8 9 10 11 12 13 
 14 15 17 18 19 20 21 22 23 24 25 26 
 27 28 29 30 31 33 34 35 37 38 40 41 
 42 43 44 45 46 47 48 50 51 52 53 54 
 55 56 57 58 59 60 61 64 66 67 68 69 
 70 71 72 73 74 75 76 77 78 80 81 82 
 83 84 85 86 87 89 90 91 
 9 
 3 12 27 45 49 59 65 71 72 
 46 
 1 3 5 8 9 10 12 16 17 20 21 22 
 32 33 36 37 38 40 41 44 45 46 48 51 
 52 53 55 57 58 60 65 66 67 69 70 71 
 72 73 74 76 77 78 79 83 88 89 
 38 
 1 4 7 11 12 13 15 17 18 21 22 28 
 29 31 32 33 34 36 37 41 43 48 49 50 
 54 56 61 62 63 64 68 70 72 77 80 82 
 84 91 
 91 
 1 2 3 4 5 6 7 8 9 10 11 12 
 13 14 15 16 17 18 19 20 21 22 23 24 
 25 26 27 28 29 30 31 32 33 34 35 36 
 37 38 39 40 41 42 43 44 45 46 47 48 
 49 50 51 52 53 54 55 56 57 58 59 60 
 61 62 63 64 65 66 67 68 69 70 71 72 
 73 74 75 76 77 78 79 80 81 82 83 84 
 85 86 87 88 89 90 91 
 55 
 1 3 4 5 6 7 8 12 15 16 19 20 
 22 25 26 27 30 31 34 35 37 38 40 41 
 43 45 46 49 50 53 54 57 58 60 63 64 
 65 66 68 69 70 72 73 77 78 79 80 81 
 82 83 84 85 86 89 91 
 63 
 1 2 3 4 5 6 8 10 11 13 15 17 
 18 19 21 22 23 24 25 27 28 29 30 32 
 33 34 35 36 39 40 42 43 45 48 49 51 
 52 54 55 56 59 61 62 63 65 66 67 68 
 69 73 74 76 77 78 79 80 81 82 84 85 
 89 90 91 
 18 
 4 6 16 27 32 37 55 56 64 65 68 71 
 73 75 78 80 82 83 
 10 
 1 22 41 44 47 52 55 57 77 81 
 88 
 1 2 3 4 5 6 7 10 11 12 13 14 
 15 16 17 18 19 20 21 22 23 24 25 26 
 27 28 29 30 31 32 33 34 36 37 38 39 
 40 41 42 43 44 45 46 47 48 49 50 51 
 52 53 54 55 56 57 58 59 60 61 62 63 
 64 65 66 67 68 69 70 71 72 73 74 75 
 76 77 78 79 80 81 82 83 84 85 86 87 
 88 89 90 91 
 74 
 1 2 3 4 5 6 7 8 11 13 14 15 
 16 17 18 20 21 22 23 24 25 27 28 29 
 31 33 34 35 38 39 40 42 43 44 45 46 
 47 48 49 50 51 52 53 55 56 57 58 59 
 60 62 63 64 65 66 67 68 69 71 72 73 
 74 75 76 77 78 79 81 82 83 84 87 89 
 90 91 
 49 
 2 3 4 6 7 11 12 15 17 18 19 20 
 22 24 29 30 31 33 35 38 39 40 44 45 
 46 47 50 51 52 53 54 55 58 59 66 68 
 69 73 75 76 78 80 81 83 84 85 86 87 
 88 
 81 
 1 3 4 5 6 7 8 9 10 11 12 13 
 15 16 18 19 20 21 22 23 24 26 27 28 
 29 30 31 32 33 34 35 36 37 38 39 40 
 41 42 43 44 45 46 47 48 49 50 51 52 
 53 54 55 56 57 58 59 60 61 62 63 64 
 65 66 68 69 70 71 73 75 76 77 79 80 
 81 82 83 84 86 87 88 90 91 
 75 
 1 2 3 5 6 7 8 9 10 11 12 14 
 15 16 17 18 19 20 21 23 25 26 27 28 
 30 32 33 35 36 37 38 39 40 41 43 44 
 45 47 48 50 51 52 53 54 55 56 57 58 
 59 60 61 63 64 65 66 67 69 70 71 72 
 73 74 76 77 78 79 80 82 83 84 85 86 
 89 90 91 
 81 
 1 2 3 4 5 6 7 8 9 10 11 12 
 13 14 16 17 20 21 22 23 24 25 26 27 
 28 30 31 32 33 34 35 36 37 38 39 40 
 42 43 44 45 46 47 48 49 50 51 52 53 
 54 55 56 57 58 59 60 61 62 63 64 65 
 66 67 68 69 71 72 73 74 75 76 77 78 
 79 82 83 85 86 87 88 89 91 
 27 
 2 3 6 8 9 11 21 25 27 30 40 44 
 45 50 51 54 55 63 65 67 75 76 80 82 
 84 87 91 
 71 
 3 4 5 6 8 9 11 12 13 14 15 16 
 17 18 19 22 23 24 27 28 29 32 33 34 
 35 37 38 41 42 43 44 46 47 49 50 52 
 53 54 55 56 57 58 59 60 61 62 63 64 
 65 66 68 69 70 72 73 74 75 76 77 78 
 79 81 82 83 84 85 86 88 89 90 91 
 23 
 6 9 12 29 30 31 34 38 40 41 47 50 
 51 52 70 74 75 76 78 83 84 88 91 
 57 
 2 6 7 8 9 10 11 13 14 16 17 19 
 23 24 25 26 27 28 29 31 35 36 37 38 
 40 42 43 44 45 46 48 50 51 52 56 58 
 61 62 63 64 66 67 68 69 71 72 74 75 
 77 78 79 80 83 84 87 88 90 
 67 
 1 2 4 5 6 7 9 10 11 12 16 17 
 18 19 24 25 26 27 28 29 30 32 33 34 
 35 37 39 40 41 43 45 46 47 48 49 50 
 52 53 54 55 56 57 58 61 62 63 64 66 
 68 69 71 72 73 74 75 76 77 78 81 83 
 84 85 87 88 89 90 91 
 87 
 1 2 3 4 5 6 7 8 9 10 11 12 
 13 14 15 16 17 18 19 20 21 22 23 24 
 25 26 27 28 30 31 32 33 34 35 36 37 
 38 39 40 42 43 44 45 46 47 48 49 50 
 51 52 53 54 55 56 57 58 59 60 62 63 
 64 65 67 68 69 70 71 72 73 74 75 76 
 77 78 79 80 81 82 83 84 85 86 87 88 
 89 90 91 
 18 
 3 6 7 14 17 24 31 48 49 56 63 64 
 65 67 72 74 80 89 
 20 
 2 7 12 15 17 19 24 34 37 44 45 48 
 49 52 61 64 67 75 85 91 
 17 
 8 10 12 13 15 29 35 36 41 44 48 52 
 60 76 77 85 89 
 63 
 2 3 5 9 10 11 13 14 15 16 17 19 
 21 22 23 24 26 28 29 30 31 32 33 34 
 35 36 38 39 41 43 44 45 47 48 49 50 
 52 54 55 56 57 60 61 63 64 65 68 70 
 71 72 74 75 76 77 78 79 81 83 84 87 
 88 90 91 
 3 
 6 10 61 
 25 
 1 2 5 8 10 11 14 19 23 34 39 42 
 43 44 53 55 56 59 65 67 73 74 79 85 
 89 
 37 
 2 3 4 5 6 13 16 17 18 19 24 25 
 26 33 34 36 39 42 45 47 48 51 53 55 
 59 62 64 65 70 71 74 79 80 81 84 86 
 88 
 11 
 6 9 15 33 40 42 45 61 66 81 83 
 22 
 8 10 14 16 20 21 36 37 38 43 47 57 
 61 63 64 70 72 73 83 85 90 91 
 53 
 1 2 5 7 8 9 10 11 12 13 14 15 
 16 17 19 20 22 24 28 33 34 36 37 38 
 39 40 41 43 44 46 48 53 54 55 58 59 
 60 63 64 65 67 68 69 71 74 77 79 82 
 84 85 87 88 89 
 4 
 3 7 39 54 
 24 
 1 16 19 22 29 30 34 42 45 47 51 52 
 59 66 71 72 74 75 77 80 83 84 86 87 
 41 
 5 8 11 17 19 21 25 26 28 29 30 31 
 32 33 34 38 39 45 46 47 48 49 50 53 
 54 55 59 60 62 65 67 68 72 76 77 80 
 83 84 88 90 91 
 4 
 31 48 51 81 
 39 
 3 5 6 8 11 12 13 18 19 21 23 26 
 27 29 30 32 33 36 38 39 44 45 46 49 
 54 58 59 64 66 67 69 71 74 80 82 84 
 86 88 91 
 19 
 7 11 17 18 20 23 29 32 33 38 41 51 
 60 62 71 77 81 83 86 
 35 
 2 3 7 10 15 18 19 20 24 25 27 30 
 32 34 39 42 47 48 54 57 58 62 64 65 
 67 69 72 73 77 79 83 84 87 88 91 
 23 
 5 9 14 15 25 39 41 42 46 55 57 60 
 61 65 70 72 73 76 79 81 82 83 88 
 89 
 1 2 3 4 5 6 7 8 9 10 11 12 
 13 14 15 16 17 18 19 20 21 22 23 24 
 25 26 27 28 29 30 31 32 33 34 35 36 
 37 38 39 40 41 42 43 44 45 46 47 48 
 49 50 51 52 53 54 55 56 57 58 59 60 
 61 62 63 64 65 66 67 68 69 70 71 72 
 73 74 75 76 77 78 79 80 81 83 84 85 
 86 88 89 90 91 
 86 
 1 2 3 4 5 6 7 8 9 10 11 12 
 13 14 15 16 17 19 20 21 22 23 24 25 
 26 28 29 30 31 32 33 34 35 36 37 38 
 39 40 41 42 43 44 45 46 47 48 49 50 
 51 52 53 54 55 56 57 58 59 60 61 62 
 63 64 65 66 67 68 69 70 71 72 73 74 
 75 76 77 78 79 80 81 82 83 84 85 88 
 90 91 
 65 
 1 2 3 4 5 6 8 10 11 12 13 14 
 16 17 18 20 22 23 25 26 28 29 30 31 
 32 34 35 36 37 38 39 42 46 47 49 50 
 51 52 57 58 59 60 61 63 64 67 68 69 
 70 71 73 74 76 77 79 81 82 83 84 86 
 87 88 89 90 91 
 91 
 1 2 3 4 5 6 7 8 9 10 11 12 
 13 14 15 16 17 18 19 20 21 22 23 24 
 25 26 27 28 29 30 31 32 33 34 35 36 
 37 38 39 40 41 42 43 44 45 46 47 48 
 49 50 51 52 53 54 55 56 57 58 59 60 
 61 62 63 64 65 66 67 68 69 70 71 72 
 73 74 75 76 77 78 79 80 81 82 83 84 
 85 86 87 88 89 90 91 
 60 
 1 3 4 5 6 8 9 10 11 12 13 14 
 15 17 18 19 22 23 24 25 26 31 33 36 
 37 38 39 40 42 43 44 45 47 50 54 56 
 57 58 59 60 61 64 65 66 67 68 70 71 
 72 74 77 79 80 81 83 85 88 89 90 91 
 10 
 19 31 32 38 42 45 47 48 76 85 
 59 
 1 2 4 5 7 9 10 13 14 16 17 18 
 19 22 25 26 27 28 29 30 32 33 34 35 
 36 38 40 41 42 45 46 47 48 49 51 52 
 53 55 57 58 60 63 64 67 70 71 72 73 
 74 75 77 78 80 82 84 85 87 89 91 
 76 
 1 2 3 4 5 6 7 8 12 13 14 15 
 16 19 20 21 23 24 25 26 27 30 31 32 
 33 34 35 36 39 40 41 42 43 44 45 46 
 47 48 50 51 52 53 54 55 56 57 58 59 
 61 62 63 64 65 66 67 68 70 71 72 73 
 74 76 77 78 79 80 81 82 83 84 85 86 
 87 88 89 91 
 51 
 1 5 7 8 9 10 12 13 14 15 22 24 
 25 26 28 29 30 32 33 35 40 41 42 46 
 47 48 49 53 56 59 61 62 64 66 67 68 
 69 70 73 74 75 76 77 78 79 80 81 85 
 87 88 89 
 6 
 8 49 63 72 76 82 
 76 
 1 2 3 4 5 6 9 10 11 12 13 14 
 15 17 18 19 20 21 22 23 24 26 28 29 
 30 31 33 34 35 36 38 39 41 42 44 45 
 46 47 48 49 50 51 52 53 54 55 57 58 
 59 60 61 62 63 64 65 67 68 69 70 71 
 72 73 74 75 76 78 79 80 81 82 83 85 
 86 87 89 90 
 29 
 5 7 10 11 16 17 18 23 24 25 30 31 
 33 40 41 49 52 58 59 65 66 67 70 71 
 72 79 81 84 89 
 31 
 1 2 6 7 11 13 15 18 19 20 21 23 
 33 37 38 40 42 43 45 48 54 55 63 67 
 69 71 78 79 83 84 85 
 88 
 1 2 3 4 5 6 7 8 9 10 11 12 
 13 15 16 17 18 19 20 21 22 23 24 25 
 26 27 28 29 30 31 32 33 34 35 36 37 
 38 39 40 41 42 43 44 45 46 47 48 49 
 50 51 52 53 54 55 56 58 59 60 61 62 
 63 64 65 66 67 68 69 70 72 73 74 75 
 76 77 78 79 80 81 82 83 84 85 86 87 
 88 89 90 91 
 39 
 3 8 11 12 13 15 17 19 23 24 26 28 
 29 30 32 34 35 36 41 42 43 47 51 53 
 54 56 59 60 64 65 66 67 68 70 73 79 
 85 86 89 
 62 
 2 3 4 7 8 10 12 13 15 16 17 20 
 21 22 25 26 27 29 30 33 34 35 36 39 
 40 42 43 44 45 46 47 49 50 51 52 53 
 56 57 60 62 63 64 65 67 68 69 70 71 
 72 73 76 77 78 79 80 81 82 83 85 87 
 88 89 
 29 
 8 10 11 12 14 16 17 19 22 23 24 26 
 29 30 32 35 36 41 42 45 54 62 63 64 
 67 73 80 88 91 
 43 
 4 5 11 14 15 16 17 20 21 22 24 29 
 31 32 33 38 41 46 47 49 52 53 55 58 
 59 60 61 63 64 65 68 71 72 73 75 78 
 79 80 81 82 84 85 91 
 7 
 4 10 19 20 29 74 89 
 17 
 7 9 17 23 27 32 46 53 59 61 63 68 
 73 76 77 82 86 
 36 
 2 3 7 9 14 15 16 18 22 26 28 31 
 33 34 37 38 44 45 46 52 57 60 66 67 
 68 70 71 73 74 75 78 81 84 86 90 91 
 3 
 13 46 67 
 50 
 5 6 7 9 11 13 15 16 17 18 21 22 
 23 25 26 27 34 35 40 42 45 46 48 49 
 50 52 53 54 55 56 64 65 66 67 68 70 
 71 72 73 74 75 80 81 83 85 86 88 89 
 90 91 
 31 
 3 5 7 12 15 19 24 27 32 34 35 37 
 39 48 49 51 53 55 58 59 61 63 65 68 
 72 76 77 80 83 87 89 
 33 
 5 6 8 10 12 15 16 21 22 26 29 30 
 35 42 46 47 49 52 57 58 59 61 62 65 
 67 69 70 78 80 85 86 87 90 
 50 
 2 4 5 6 10 11 12 13 14 16 17 19 
 21 22 25 29 30 31 34 35 37 39 40 45 
 47 48 51 52 54 57 58 60 61 63 64 66 
 70 71 74 75 76 77 79 80 81 82 84 86 
 87 89 
 71 
 1 2 3 4 5 6 8 9 10 12 14 15 
 16 17 18 19 20 21 22 23 24 25 27 28 
 29 31 32 33 34 36 37 38 39 40 42 45 
 46 47 48 49 50 51 52 53 54 56 57 58 
 59 60 62 63 65 67 68 69 70 72 73 76 
 77 78 79 80 83 84 85 87 89 90 91 
 75 
 1 2 3 4 5 7 8 9 11 12 13 14 
 15 16 17 18 19 20 21 22 23 25 26 27 
 28 29 30 31 32 33 34 35 36 38 39 40 
 41 43 44 45 47 48 50 51 52 53 55 56 
 57 59 61 62 63 64 67 69 70 71 72 73 
 74 75 76 77 79 80 81 82 84 86 87 88 
 89 90 91 
 72 
 1 3 4 5 6 7 8 9 10 11 12 14 
 16 17 19 20 21 23 24 25 26 27 28 29 
 30 31 32 33 36 38 39 40 41 42 43 44 
 45 46 47 49 50 51 52 54 55 56 57 59 
 61 62 63 64 65 67 68 70 72 73 74 76 
 77 78 79 81 83 84 85 86 87 89 90 91 
 23 
 5 7 8 9 19 22 27 32 35 44 47 53 
 56 60 68 71 72 75 79 81 87 88 89 
 23 
 1 2 3 19 20 26 29 38 39 40 41 48 
 53 55 56 62 64 74 77 79 82 83 87 
 78 
 3 4 5 6 7 8 9 10 12 13 14 15 
 16 17 18 19 20 21 22 23 25 26 27 28 
 29 30 31 33 35 36 37 38 39 40 43 44 
 45 46 47 48 49 50 51 53 55 56 57 58 
 59 60 61 62 63 64 65 66 67 68 69 70 
 71 72 73 75 76 77 78 79 81 83 84 85 
 86 87 88 89 90 91 
 11 
 1 14 37 42 43 49 50 58 64 81 89 
 54 
 3 4 6 8 10 11 14 15 16 17 18 19 
 20 23 25 26 28 29 31 32 33 34 37 38 
 39 40 42 45 46 48 50 52 55 59 60 61 
 62 63 69 70 71 73 74 75 76 77 78 81 
 83 85 87 89 90 91 
 15 
 2 5 8 10 19 24 26 28 30 56 62 68 
 79 84 85 
 80 
 1 3 4 5 6 7 8 9 10 11 12 13 
 14 15 16 18 19 21 22 23 24 25 26 27 
 28 29 30 31 32 33 34 35 36 37 38 39 
 40 41 43 44 46 48 49 50 51 52 53 55 
 56 59 60 61 63 64 65 66 67 68 69 70 
 71 72 73 74 75 76 77 78 79 80 81 82 
 83 84 86 87 88 89 90 91 
 4 
 29 52 62 80 
 71 
 2 4 5 7 8 9 10 11 12 13 14 16 
 17 18 19 20 22 23 24 25 26 27 28 30 
 31 32 33 34 35 36 37 38 40 41 42 44 
 45 46 47 48 49 50 51 52 53 54 55 57 
 59 60 61 62 63 66 67 68 69 70 71 73 
 74 75 77 78 79 83 85 86 87 88 90 
 2 
 67 86 
 26 
 1 4 6 9 12 14 23 25 26 32 33 34 
 39 43 50 52 54 64 67 73 74 81 83 84 
 86 88 
 35 
 4 6 9 10 13 18 19 20 23 25 30 31 
 33 36 38 42 45 46 51 52 53 58 59 60 
 61 63 64 67 68 70 71 76 80 85 90 
 46 
 1 2 5 10 12 13 14 16 17 19 20 22 
 25 26 28 29 30 34 40 44 46 49 50 51 
 52 54 56 57 58 60 62 63 64 72 73 78 
 79 80 82 83 84 85 87 88 90 91 
 17 
 8 13 16 28 30 47 57 59 65 69 77 78 
 80 83 84 88 91 
 27 
 2 3 7 9 15 16 18 19 23 27 28 32 
 36 37 39 43 47 49 50 57 67 73 78 79 
 84 85 86 
 73 
 1 2 5 6 7 8 9 11 12 13 14 15 
 16 17 18 19 20 21 22 23 24 26 27 28 
 29 31 32 34 35 36 37 38 39 40 42 44 
 45 46 47 48 49 50 51 52 53 54 55 56 
 57 61 62 63 64 65 67 70 71 72 75 76 
 77 78 79 80 81 82 83 84 87 88 89 90 
 91 
 11 
 7 25 27 28 47 56 60 66 69 75 86 
 31 
 4 7 10 17 21 22 24 25 26 27 28 33 
 34 35 36 37 43 44 45 48 49 54 57 60 
 61 63 64 67 68 71 91 
 66 
 1 2 3 4 5 6 7 9 11 12 13 14 
 15 16 17 18 19 20 21 22 23 25 26 27 
 28 29 30 31 33 35 36 37 38 41 42 43 
 47 49 50 51 52 53 54 55 56 58 59 60 
 63 64 65 67 69 70 71 74 76 77 78 79 
 80 81 82 83 85 88 
 47 
 1 4 5 7 11 13 15 16 17 18 21 25 
 27 28 30 32 33 34 35 36 38 39 40 42 
 43 44 46 47 48 51 54 56 57 58 60 62 
 64 65 70 71 73 74 79 81 83 86 88 
 